db/data/13521167091040193813070305851911913224.z3.out
sat
-------------------
386.792939700
